27      4       
10      10      10      10      
0       0       0       0       0       9       2       4       5       6       7       9       11      14      15      
1       1       1       1       1       2       3       24      
1       3       4       9       2       4       8       10      13      20      
1       6       6       5       3       9       13      16      17      19      22      23      24      25      26      
7       7       8       3       6       6       10      16      18      20      22      24      
3       7       2       3       5       6       12      16      19      21      24      25      
8       6       5       7       7       5       16      17      18      19      20      
5       5       2       7       5       4       16      17      21      22      
1       6       2       3       6       4       16      18      19      21      
2       5       4       6       10      3       17      19      23      
6       9       9       7       4       3       16      17      20      
6       4       3       3       4       2       18      20      
10      3       5       4       4       1       18      
5       3       7       5       5       1       17      
6       6       6       4       5       1       16      
5       6       7       3       7       1       27      
8       8       5       3       7       1       27      
3       2       4       4       5       1       27      
1       5       6       7       9       1       27      
9       2       8       7       2       1       27      
6       3       4       6       4       1       27      
1       6       3       6       4       1       27      
4       2       5       5       6       1       27      
2       7       9       7       5       1       27      
4       7       6       2       4       1       27      
1       6       4       8       5       1       27      
0       0       0       0       0       0       
